
(declare-fun C () (_ BitVec 23))
(declare-fun C2 () (_ BitVec 23))
(declare-fun %X () (_ BitVec 23))
(assert (and (bvult C (_ bv23 23)) (not (= (bvshl (bvadd %X C2) C) (bvadd (bvshl %X C) (bvshl C2 C))))))
(assert true)
(check-sat)